(set-logic ALL)
(set-option :fmf-bound true)
(set-option :produce-models true)
(declare-sort Object 0)

(declare-fun var68 (Bool) Bool)
(declare-fun var9 (Bool) Bool)
(declare-fun var47 (Bool) Bool)
(declare-fun var86 (Bool) Bool)
(declare-fun var5 (Bool) Bool)
(declare-fun var62 (Bool) Bool)
(declare-fun var13 (Bool) Bool)
(declare-fun var55 (Bool) Bool)
(declare-fun var12 (Bool) Bool)
(declare-fun var41 (Bool) Bool)
(declare-fun var32 (Bool) Bool)
(declare-fun var100 (Bool) Bool)
(declare-fun var38 (Bool) Bool)
(declare-fun var77 (Bool) Bool)
(declare-fun var60 (Bool) Bool)
(declare-fun var58 (Bool) Bool)
(declare-fun var2 (Bool) Bool)
(declare-fun var92 (Bool) Bool)
(declare-fun var64 (Bool) Bool)
(declare-fun var8 (Bool) Bool)
(declare-fun var78 (Bool) Bool)
(declare-fun var56 (Bool) Bool)
(declare-fun var96 (Bool) Bool)
(declare-fun var19 (Bool) Bool)
(declare-fun var16 (Bool) Bool)
(declare-fun var66 (Bool) Bool)
(declare-fun var24 (Bool) Bool)
(declare-fun var23 (Bool) Bool)
(declare-fun var52 (Bool) Bool)
(declare-fun var4 (Bool) Bool)
(declare-fun var50 (Bool) Bool)
(declare-fun var80 (Bool) Bool)
(declare-fun var18 (Bool) Bool)
(declare-fun var49 (Bool) Bool)
(declare-fun var17 (Bool) Bool)
(declare-fun var30 (Bool) Bool)
(declare-fun var53 (Bool) Bool)
(declare-fun var74 (Bool) Bool)
(declare-fun var6 (Bool) Bool)
(declare-fun var28 (Bool) Bool)
(declare-fun var42 (Bool) Bool)
(declare-fun var27 (Bool) Bool)
(declare-fun var84 (Bool) Bool)
(declare-fun var7 (Bool) Bool)
(declare-fun var21 (Bool) Bool)
(declare-fun var25 (Bool) Bool)
(declare-fun var54 (Bool) Bool)
(declare-fun var39 (Bool) Bool)
(declare-fun var87 (Bool) Bool)
(declare-fun var46 (Bool) Bool)
(declare-fun var57 (Bool) Bool)
(declare-fun var67 (Bool) Bool)
(declare-fun var91 (Bool) Bool)
(declare-fun var63 (Bool) Bool)
(declare-fun var22 (Bool) Bool)
(declare-fun var72 (Bool) Bool)
(declare-fun var82 (Bool) Bool)
(declare-fun var40 (Bool) Bool)
(declare-fun var26 (Bool) Bool)
(declare-fun var31 (Bool) Bool)
(declare-fun var69 (Bool) Bool)
(declare-fun var37 (Bool) Bool)
(declare-fun var35 (Bool) Bool)
(declare-fun var43 (Bool) Bool)
(declare-fun var10 (Bool) Bool)
(declare-fun var29 (Bool) Bool)
(declare-fun var45 (Bool) Bool)
(declare-fun var15 (Bool) Bool)
(declare-fun var93 (Bool) Bool)
(declare-fun var14 (Bool) Bool)
(declare-fun var36 (Bool) Bool)
(declare-fun var1 (Bool) Bool)
(declare-fun var73 (Bool) Bool)
(declare-fun var3 (Bool) Bool)
(declare-fun var76 (Bool) Bool)
(declare-fun var51 (Bool) Bool)
(declare-fun var20 (Bool) Bool)
(declare-fun var85 (Bool) Bool)
(declare-fun var34 (Bool) Bool)
(declare-fun var98 (Bool) Bool)
(declare-fun var75 (Bool) Bool)
(declare-fun var99 (Bool) Bool)
(declare-fun var33 (Bool) Bool)
(declare-fun var48 (Bool) Bool)
(declare-fun var81 (Bool) Bool)
(declare-fun var65 (Bool) Bool)
(declare-fun var88 (Bool) Bool)
(declare-fun var83 (Bool) Bool)
(declare-fun var79 (Bool) Bool)
(declare-fun var89 (Bool) Bool)
(declare-fun var11 (Bool) Bool)
(declare-fun var71 (Bool) Bool)
(declare-fun var94 (Bool) Bool)
(declare-fun var70 (Bool) Bool)
(declare-fun var44 (Bool) Bool)
(declare-fun var59 (Bool) Bool)
(declare-fun var90 (Bool) Bool)
(declare-fun var95 (Bool) Bool)
(declare-fun var61 (Bool) Bool)
(declare-fun var97 (Bool) Bool)
(declare-fun GTE (Bool Bool) Bool)
(define-fun implies ((p Bool)(q Bool)) Bool (or (not p) q))

(assert (forall ((x Bool)) (not((var68 x)))))
(assert (forall ((x Bool)) (not((var9 x)))))
(assert (forall ((x Bool)) (not((not(var47 x))))))
(assert (forall ((x Bool)) (not((var86 x)))))
(assert (forall ((x Bool)) (not((not(var5 x))))))
(assert (forall ((x Bool)) (not((var62 x)))))
(assert (forall ((x Bool)) (not((var68 x)))))
(assert (forall ((x Bool)) (not((not(var13 x))))))
(assert (forall ((x Bool)) (not((not(var55 x))))))
(assert (forall ((x Bool)) (not((not(var12 x))))))
(assert (forall ((x Bool)) (not((not(var41 x))))))
(assert (forall ((x Bool)) (not((var32 x)))))
(assert (forall ((x Bool)) (not((var100 x)))))
(assert (forall ((x Bool)) (not((not(var38 x))))))
(assert (forall ((x Bool)) (not((var77 x)))))
(assert (forall ((x Bool)) (not((var60 x)))))
(assert (forall ((x Bool)) (not((not(var58 x))))))
(assert (forall ((x Bool)) (not((var2 x)))))
(assert (forall ((x Bool)) (not((not(var92 x))))))
(assert (exists ((x Bool)) ((var64 x))))
(assert (exists ((x Bool)) ((var8 x))))
(assert (forall ((x Bool)) (not(or (not(var32 x)) (not(var78 x))))))
(assert (forall ((x Bool)) (not(or (var56 x) (not(var96 x))))))
(assert (forall ((x Bool)) (not(or (var19 x) (not(var16 x))))))
(assert (forall ((x Bool)) (not(or (var66 x) (var24 x)))))
(assert (forall ((x Bool)) (not(or (not(var23 x)) (var96 x)))))
(assert (forall ((x Bool)) (not(or (not(var100 x)) (not(var52 x))))))
(assert (forall ((x Bool)) (not(or (var4 x) (var13 x)))))
(assert (forall ((x Bool)) (not(or (var50 x) (not(var80 x))))))
(assert (forall ((x Bool)) (not(or (not(var47 x)) (var18 x)))))
(assert (forall ((x Bool)) (not(or (not(var9 x)) (var77 x)))))
(assert (forall ((x Bool)) (not(or (not(var49 x)) (not(var17 x))))))
(assert (forall ((x Bool)) (not(or (not(var30 x)) (not(var53 x))))))
(assert (forall ((x Bool)) (not(or (var12 x) (not(var74 x))))))
(assert (forall ((x Bool)) (not(or (not(var6 x)) (var28 x)))))
(assert (forall ((x Bool)) (not(or (not(var42 x)) (not(var27 x))))))
(assert (forall ((x Bool)) (not(or (var84 x) (not(var7 x))))))
(assert (forall ((x Bool)) (not(or (not(var84 x)) (var21 x)))))
(assert (forall ((x Bool)) (not(or (var13 x) (not(var25 x))))))
(assert (forall ((x Bool)) (not(or (var54 x) (not(var39 x))))))
(assert (forall ((x Bool)) (not(or (var56 x) (var87 x)))))
(assert (forall ((x Bool)) (not(or (var46 x) (not(var57 x))))))
(assert (forall ((x Bool)) (not(or (not(var57 x)) (var55 x)))))
(assert (forall ((x Bool)) (not(or (var13 x) (not(var92 x))))))
(assert (forall ((x Bool)) (not(or (var67 x) (var60 x)))))
(assert (forall ((x Bool)) (not(or (var7 x) (not(var38 x))))))
(assert (forall ((x Bool)) (not(or (not(var91 x)) (var63 x)))))
(assert (forall ((x Bool)) (not(or (not(var18 x)) (not(var91 x))))))
(assert (forall ((x Bool)) (not(or (not(var22 x)) (not(var7 x))))))
(assert (forall ((x Bool)) (not(or (not(var72 x)) (not(var6 x))))))
(assert (forall ((x Bool)) (not(or (not(var7 x)) (not(var72 x))))))
(assert (forall ((x Bool)) (not(or (not(var82 x)) (not(var6 x))))))
(assert (forall ((x Bool)) (not(or (var40 x) (not(var26 x))))))
(assert (forall ((x Bool)) (not(or (not(var31 x)) (var69 x)))))
(assert (forall ((x Bool))  (exists ((x1 Bool)) (and(GTE x x1)  (implies (var54 x1) (not(var24 x)))))))
(assert (forall ((x Bool))  (exists ((x1 Bool)) (and(GTE x x1)  (implies (var18 x1) (not(var74 x)))))))
(assert (forall ((x Bool))  (exists ((x1 Bool)) (and(GTE x x1)  (implies (var32 x1) (not(var37 x)))))))
(assert (forall ((x Bool))  (exists ((x1 Bool)) (and(GTE x x1)  (implies (not(var31 x1)) (not(var2 x)))))))
(assert (forall ((x Bool)) (not(or (var12 x) (var35 x) (not(var43 x))))))
(assert (forall ((x Bool)) (not(or (not(var69 x)) (var49 x) (not(var40 x))))))
(assert (forall ((x Bool)) (not(or (var10 x) (var29 x) (not(var91 x))))))
(assert (forall ((x Bool)) (not(or (not(var50 x)) (var41 x) (var5 x)))))
(assert (forall ((x Bool)) (not(or (not(var45 x)) (not(var37 x)) (var6 x)))))
(assert (forall ((x Bool)) (not(or (var15 x) (not(var52 x)) (not(var18 x))))))
(assert (forall ((x Bool)) (not(or (var93 x) (var14 x) (var36 x)))))
(assert (forall ((x Bool)) (not(or (not(var1 x)) (var73 x) (var3 x)))))
(assert (forall ((x Bool)) (not(or (not(var76 x)) (not(var39 x)) (var96 x)))))
(assert (forall ((x Bool)) (not(or (var22 x) (not(var40 x)) (var19 x)))))
(assert (forall ((x Bool)) (not(or (var96 x) (not(var51 x)) (not(var40 x))))))
(assert (forall ((x Bool)) (not(or (not(var45 x)) (var50 x) (var39 x)))))
(assert (forall ((x Bool)) (not(or (var41 x) (not(var84 x)) (var69 x)))))
(assert (forall ((x Bool)) (not(or (not(var10 x)) (not(var22 x)) (var96 x)))))
(assert (forall ((x Bool)) (not(or (var20 x) (var66 x) (var85 x)))))
(assert (forall ((x Bool)) (not(or (var34 x) (not(var47 x)) (var98 x)))))
(assert (forall ((x Bool)) (not(or (not(var75 x)) (not(var50 x)) (var99 x)))))
(assert (forall ((x Bool)) (not(or (not(var10 x)) (var21 x) (var17 x)))))
(assert (forall ((x Bool)) (not(or (var75 x) (var51 x) (var33 x)))))
(assert (forall ((x Bool)) (not(or (not(var48 x)) (not(var72 x)) (not(var46 x))))))
(assert (forall ((x Bool)) (not(or (var81 x) (not(var72 x)) (var58 x)))))
(assert (forall ((x Bool)) (not(or (var30 x) (var36 x) (var1 x)))))
(assert (forall ((x Bool)) (not(or (not(var65 x)) (not(var52 x)) (var88 x)))))
(assert (forall ((x Bool)) (not(or (var99 x) (not(var83 x)) (var75 x)))))
(assert (forall ((x Bool)) (not(or (var57 x) (var75 x) (var81 x)))))
(assert (forall ((x Bool)) (not(or (var98 x) (var28 x) (not(var46 x))))))
(assert (forall ((x Bool)) (not(or (var79 x) (not(var34 x)) (not(var89 x))))))
(assert (forall ((x Bool)) (not(or (not(var72 x)) (var67 x) (not(var84 x))))))
(assert (forall ((x Bool)) (not(or (var98 x) (var100 x) (not(var63 x))))))
(assert (forall ((x Bool)) (not(or (var54 x) (not(var93 x)) (var92 x)))))
(assert (forall ((x Bool)) (not(or (not(var28 x)) (not(var78 x)) (var16 x)))))
(assert (forall ((x Bool)) (not(or (not(var38 x)) (var4 x) (not(var40 x))))))
(assert (forall ((x Bool)) (not(or (not(var11 x)) (var86 x) (var16 x)))))
(assert (forall ((x Bool)) (not(or (not(var67 x)) (var45 x) (var80 x)))))
(assert (forall ((x Bool)) (not(or (var18 x) (not(var41 x)) (var52 x)))))
(assert (forall ((x Bool)) (not(or (var80 x) (var10 x) (var3 x)))))
(assert (forall ((x Bool)) (not(or (not(var16 x)) (var79 x) (not(var3 x))))))
(assert (forall ((x Bool)) (not(or (var17 x) (not(var74 x)) (not(var10 x))))))
(assert (forall ((x Bool)) (not(or (not(var71 x)) (var86 x) (not(var5 x))))))
(assert (forall ((x Bool))  (exists ((x1 Bool)) (and(GTE x x1)  (implies (not(var35 x1)) (or (var49 x) (var48 x)))))))
(assert (forall ((x Bool))  (exists ((x1 Bool)) (and(GTE x x1)  (implies (or (var58 x1) (var36 x1)) (var74 x))))))
(assert (forall ((x Bool))  (exists ((x1 Bool)) (and(GTE x x1)  (implies (or (var93 x1) (not(var64 x1))) (var80 x))))))
(assert (forall ((x Bool))  (exists ((x1 Bool)) (and(GTE x x1)  (implies (not(var34 x1)) (or (var37 x) (not(var11 x))))))))
(assert (forall ((x Bool)) (not(or (not(var38 x)) (var68 x) (var16 x) (var15 x)))))
(assert (forall ((x Bool)) (not(or (not(var67 x)) (not(var27 x)) (var1 x) (var31 x)))))
(assert (forall ((x Bool)) (not(or (var91 x) (not(var52 x)) (var67 x) (not(var29 x))))))
(assert (forall ((x Bool)) (not(or (var5 x) (not(var63 x)) (var84 x) (var18 x)))))
(assert (forall ((x Bool)) (not(or (not(var14 x)) (var3 x) (not(var8 x)) (var24 x)))))
(assert (forall ((x Bool)) (not(or (not(var4 x)) (var96 x) (not(var94 x)) (var56 x)))))
(assert (forall ((x Bool)) (not(or (not(var87 x)) (var70 x) (var44 x) (not(var36 x))))))
(assert (forall ((x Bool)) (not(or (var12 x) (var58 x) (var71 x) (not(var16 x))))))
(assert (forall ((x Bool)) (not(or (not(var86 x)) (not(var3 x)) (var5 x) (var78 x)))))
(assert (forall ((x Bool)) (not(or (var44 x) (var23 x) (var37 x) (var3 x)))))
(assert (forall ((x Bool)) (not(or (not(var70 x)) (not(var28 x)) (var43 x) (var54 x)))))
(assert (forall ((x Bool)) (not(or (var32 x) (var12 x) (not(var16 x)) (not(var10 x))))))
(assert (forall ((x Bool)) (not(or (not(var10 x)) (var42 x) (var34 x) (var2 x)))))
(assert (forall ((x Bool)) (not(or (not(var66 x)) (not(var51 x)) (not(var34 x)) (not(var100 x))))))
(assert (forall ((x Bool)) (not(or (var73 x) (var89 x) (not(var42 x)) (var100 x)))))
(assert (forall ((x Bool)) (not(or (var59 x) (var23 x) (not(var79 x)) (var25 x)))))
(assert (forall ((x Bool)) (not(or (var66 x) (not(var33 x)) (not(var58 x)) (var63 x)))))
(assert (forall ((x Bool)) (not(or (not(var88 x)) (not(var96 x)) (var7 x) (var85 x)))))
(assert (forall ((x Bool)) (not(or (not(var3 x)) (var41 x) (var36 x) (not(var45 x))))))
(assert (forall ((x Bool)) (not(or (var9 x) (not(var31 x)) (var99 x) (var77 x)))))
(assert (forall ((x Bool)) (not(or (not(var33 x)) (not(var40 x)) (not(var35 x)) (not(var5 x))))))
(assert (forall ((x Bool)) (not(or (var73 x) (var55 x) (var8 x) (var78 x)))))
(assert (forall ((x Bool)) (not(or (var79 x) (var49 x) (not(var90 x)) (var24 x)))))
(assert (forall ((x Bool)) (not(or (var28 x) (var1 x) (var94 x) (var80 x)))))
(assert (forall ((x Bool)) (not(or (var37 x) (var100 x) (not(var21 x)) (var82 x)))))
(assert (forall ((x Bool)) (not(or (var59 x) (not(var12 x)) (var34 x) (not(var1 x))))))
(assert (forall ((x Bool)) (not(or (not(var75 x)) (not(var60 x)) (var90 x) (var81 x)))))
(assert (forall ((x Bool)) (not(or (var100 x) (not(var50 x)) (not(var91 x)) (var45 x)))))
(assert (forall ((x Bool)) (not(or (var50 x) (var96 x) (var84 x) (not(var91 x))))))
(assert (forall ((x Bool)) (not(or (var67 x) (var49 x) (var20 x) (var57 x)))))
(assert (forall ((x Bool)) (not(or (not(var43 x)) (var92 x) (var20 x) (not(var56 x))))))
(assert (forall ((x Bool)) (not(or (var84 x) (not(var19 x)) (not(var31 x)) (var39 x)))))
(assert (forall ((x Bool)) (not(or (not(var62 x)) (not(var79 x)) (not(var15 x)) (var33 x)))))
(assert (forall ((x Bool)) (not(or (var42 x) (not(var100 x)) (not(var1 x)) (var95 x)))))
(assert (forall ((x Bool))  (exists ((x1 Bool)) (and(GTE x x1)  (implies (not(var73 x1)) (or (not(var68 x)) (not(var33 x)) (not(var70 x))))))))
(assert (forall ((x Bool))  (exists ((x1 Bool)) (and(GTE x x1)  (implies (or (not(var65 x1)) (var55 x1)) (or (var16 x) (not(var78 x))))))))
(assert (forall ((x Bool))  (exists ((x1 Bool)) (and(GTE x x1)  (implies (var45 x1) (or (not(var4 x)) (not(var16 x)) (not(var100 x))))))))
(assert (forall ((x Bool))  (exists ((x1 Bool)) (and(GTE x x1)  (implies (or (var98 x1) (var37 x1)) (or (not(var54 x)) (var11 x)))))))
(assert (forall ((x Bool)) (not(or (not(var56 x)) (not(var27 x)) (var87 x) (not(var88 x)) (var20 x)))))
(assert (forall ((x Bool)) (not(or (not(var20 x)) (var84 x) (not(var8 x)) (var57 x) (var91 x)))))
(assert (forall ((x Bool)) (not(or (not(var83 x)) (var55 x) (var46 x) (not(var30 x)) (not(var81 x))))))
(assert (forall ((x Bool)) (not(or (not(var62 x)) (var83 x) (var16 x) (not(var53 x)) (not(var31 x))))))
(assert (forall ((x Bool)) (not(or (not(var76 x)) (var51 x) (var100 x) (not(var72 x)) (not(var4 x))))))
(assert (forall ((x Bool)) (not(or (var40 x) (var30 x) (not(var37 x)) (var27 x) (var12 x)))))
(assert (forall ((x Bool)) (not(or (var84 x) (not(var30 x)) (var4 x) (not(var17 x)) (var86 x)))))
(assert (forall ((x Bool)) (not(or (not(var53 x)) (not(var16 x)) (var23 x) (not(var85 x)) (not(var67 x))))))
(assert (forall ((x Bool)) (not(or (var81 x) (not(var49 x)) (var22 x) (not(var94 x)) (not(var30 x))))))
(assert (forall ((x Bool)) (not(or (not(var92 x)) (var86 x) (var37 x) (not(var95 x)) (var32 x)))))
(assert (forall ((x Bool)) (not(or (var58 x) (not(var37 x)) (not(var100 x)) (var18 x) (not(var36 x))))))
(assert (forall ((x Bool)) (not(or (not(var71 x)) (var3 x) (var29 x) (not(var80 x)) (not(var15 x))))))
(assert (forall ((x Bool)) (not(or (var35 x) (not(var55 x)) (not(var15 x)) (not(var82 x)) (var61 x)))))
(assert (forall ((x Bool)) (not(or (not(var11 x)) (var60 x) (not(var93 x)) (not(var96 x)) (var54 x)))))
(assert (forall ((x Bool)) (not(or (not(var2 x)) (not(var7 x)) (var13 x) (var63 x) (not(var80 x))))))
(assert (forall ((x Bool)) (not(or (not(var100 x)) (not(var69 x)) (not(var94 x)) (var17 x) (var81 x)))))
(assert (forall ((x Bool)) (not(or (var95 x) (var35 x) (var89 x) (var4 x) (var96 x)))))
(assert (forall ((x Bool)) (not(or (var69 x) (not(var97 x)) (var63 x) (not(var90 x)) (not(var67 x))))))
(assert (forall ((x Bool)) (not(or (var8 x) (not(var2 x)) (var5 x) (not(var25 x)) (var54 x)))))
(assert (forall ((x Bool)) (not(or (var56 x) (var32 x) (var41 x) (var46 x) (not(var61 x))))))
(assert (forall ((x Bool)) (not(or (not(var45 x)) (not(var96 x)) (not(var65 x)) (var32 x) (not(var43 x))))))
(assert (forall ((x Bool)) (not(or (var83 x) (not(var9 x)) (var64 x) (var50 x) (not(var36 x))))))
(assert (forall ((x Bool)) (not(or (var81 x) (var84 x) (not(var63 x)) (var71 x) (not(var7 x))))))
(assert (forall ((x Bool))  (exists ((x1 Bool)) (and(GTE x x1)  (implies (or (var97 x1) (not(var81 x1)) (var21 x1) (var64 x1)) (var98 x))))))
(assert (forall ((x Bool))  (exists ((x1 Bool)) (and(GTE x x1)  (implies (or (var68 x1) (not(var87 x1)) (var31 x1) (var84 x1)) (not(var61 x)))))))
(assert (forall ((x Bool))  (exists ((x1 Bool)) (and(GTE x x1)  (implies (or (var53 x1) (var83 x1) (var39 x1) (not(var18 x1))) (not(var16 x)))))))
(assert (forall ((x Bool)) (not(or (var58 x) (not(var22 x)) (var84 x) (not(var97 x)) (not(var26 x)) (var73 x)))))
(assert (forall ((x Bool)) (not(or (var15 x) (var62 x) (var83 x) (not(var28 x)) (not(var100 x)) (not(var94 x))))))
(assert (forall ((x Bool)) (not(or (not(var55 x)) (not(var92 x)) (not(var77 x)) (not(var13 x)) (not(var8 x)) (var61 x)))))
(assert (forall ((x Bool)) (not(or (var13 x) (not(var58 x)) (var82 x) (not(var85 x)) (var96 x) (not(var37 x))))))
(assert (forall ((x Bool)) (not(or (not(var44 x)) (not(var84 x)) (not(var93 x)) (var81 x) (var70 x) (not(var35 x))))))
(assert (forall ((x Bool)) (not(or (var28 x) (not(var3 x)) (var58 x) (not(var27 x)) (var40 x) (not(var100 x))))))
(assert (forall ((x Bool)) (not(or (not(var93 x)) (not(var58 x)) (not(var1 x)) (not(var49 x)) (not(var10 x)) (not(var95 x))))))
(assert (forall ((x Bool)) (not(or (var53 x) (var73 x) (var28 x) (not(var26 x)) (var37 x) (var71 x)))))
(assert (forall ((x Bool)) (not(or (var82 x) (not(var92 x)) (not(var86 x)) (not(var4 x)) (var81 x) (not(var6 x))))))
(assert (forall ((x Bool)) (not(or (var24 x) (var93 x) (var42 x) (not(var81 x)) (var100 x) (var70 x)))))
(assert (forall ((x Bool)) (not(or (not(var71 x)) (not(var46 x)) (not(var74 x)) (not(var29 x)) (not(var64 x)) (not(var88 x))))))
(assert (forall ((x Bool)) (not(or (var38 x) (var33 x) (not(var63 x)) (not(var76 x)) (not(var75 x)) (not(var53 x))))))
(assert (forall ((x Bool)) (not(or (not(var50 x)) (var49 x) (not(var76 x)) (var51 x) (not(var42 x)) (not(var61 x))))))
(assert (forall ((x Bool)) (not(or (not(var35 x)) (var38 x) (not(var81 x)) (not(var2 x)) (not(var99 x)) (var43 x)))))
(assert (forall ((x Bool))  (exists ((x1 Bool)) (and(GTE x x1)  (implies (var18 x1) (or (var1 x) (not(var33 x)) (var85 x) (var55 x) (var3 x)))))))
(assert (forall ((x Bool)) (not(or (var34 x) (not(var90 x)) (var42 x) (not(var76 x)) (var45 x) (not(var20 x)) (not(var73 x))))))
(assert (forall ((x Bool)) (not(or (not(var20 x)) (var56 x) (not(var62 x)) (not(var15 x)) (var6 x) (var76 x) (not(var63 x))))))
(assert (forall ((x Bool)) (not(or (var98 x) (not(var48 x)) (var71 x) (not(var100 x)) (var81 x) (not(var65 x)) (var33 x)))))
(assert (forall ((x Bool)) (not(or (var45 x) (var34 x) (not(var93 x)) (not(var39 x)) (not(var72 x)) (var91 x) (var81 x)))))
(assert (forall ((x Bool)) (not(or (var91 x) (var24 x) (not(var9 x)) (var85 x) (var46 x) (not(var4 x)) (not(var39 x))))))
(assert (forall ((x Bool)) (not(or (var56 x) (var75 x) (not(var6 x)) (var76 x) (not(var20 x)) (not(var2 x)) (var59 x)))))
(assert (forall ((x Bool)) (not(or (var37 x) (not(var99 x)) (not(var81 x)) (not(var92 x)) (var72 x) (not(var22 x)) (not(var45 x))))))
(assert (forall ((x Bool))  (exists ((x1 Bool)) (and(GTE x x1)  (implies (or (var91 x1) (not(var25 x1)) (not(var72 x1))) (or (not(var82 x)) (var13 x) (not(var32 x)) (var20 x)))))))
(assert (forall ((x Bool)) (not(or (not(var1 x)) (var39 x) (not(var63 x)) (not(var76 x)) (not(var6 x)) (not(var27 x)) (not(var64 x)) (var66 x)))))
(assert (forall ((x Bool)) (not(or (var12 x) (not(var58 x)) (var30 x) (not(var75 x)) (var1 x) (var55 x) (not(var73 x)) (not(var14 x))))))
(assert (forall ((x Bool)) (not(or (var21 x) (var65 x) (not(var38 x)) (not(var46 x)) (not(var74 x)) (var68 x) (not(var32 x)) (not(var50 x))))))
(assert (forall ((x Bool)) (not(or (var75 x) (not(var26 x)) (not(var38 x)) (not(var42 x)) (var35 x) (var23 x) (var43 x) (var77 x) (var68 x)))))
(assert (forall ((x Bool)) (not(or (not(var100 x)) (var64 x) (var38 x) (not(var75 x))))))
(assert (forall ((x Bool)) (not((var12 x)))))
(assert (forall ((x Bool)) (not(or (var44 x) (var50 x) (not(var43 x)) (var20 x) (var17 x) (var42 x) (not(var24 x))))))
(assert (forall ((x Bool)) (not(or (not(var13 x)) (var21 x) (not(var60 x)) (var20 x) (var79 x) (not(var89 x))))))
(assert (forall ((x Bool)) (not(or (var83 x) (var45 x)))))
(assert (forall ((x Bool)) (not(or (var70 x) (var87 x) (var45 x) (var5 x) (not(var76 x)) (var61 x) (var21 x) (not(var73 x))))))
(assert (forall ((x Bool)) (not(or (not(var85 x)) (not(var16 x)) (var62 x) (not(var67 x)) (var60 x)))))
(assert (forall ((x Bool))  (exists ((x1 Bool)) (and(GTE x x1)  (implies (not(var37 x1)) (or (not(var71 x)) (var45 x) (not(var67 x)) (var76 x) (var84 x)))))))
(check-sat)
(get-model)
